\* lastbilsproblem_Kristianstad *\
Minimize
OBJ: 117.031467997 LASTBILAR:Borås_Halmstad
 + 72.9498920842 LASTBILAR:Borås_Jönköping
 + 238.062628612 LASTBILAR:Borås_Kalmar
 + 202.132093175 LASTBILAR:Borås_Kristianstad
 + 234.985314523 LASTBILAR:Borås_Malmö
 + 10.4402912365 LASTBILAR:Borås_Mellanlager
 + 91.9516130598 LASTBILAR:Borås_Skövde + 170.070640406 LASTBILAR:Borås_Väjxö
 + 57.8241232865 LASTBILAR:Göteborg_Borås
 + 127.705606929 LASTBILAR:Göteborg_Halmstad
 + 130.647354629 LASTBILAR:Göteborg_Jönköping
 + 290.006626522 LASTBILAR:Göteborg_Kalmar
 + 229.481650759 LASTBILAR:Göteborg_Kristianstad
 + 242.21615088 LASTBILAR:Göteborg_Malmö
 + 13.4716868524 LASTBILAR:Göteborg_Mellanlager
 + 134.38145494 LASTBILAR:Göteborg_Skövde
 + 213.026678846 LASTBILAR:Göteborg_Väjxö
 + 117.031467997 LASTBILAR:Halmstad_Borås
 + 146.44119272 LASTBILAR:Halmstad_Jönköping
 + 214.589770104 LASTBILAR:Halmstad_Kalmar
 + 106.953221929 LASTBILAR:Halmstad_Kristianstad
 + 118.34541695 LASTBILAR:Halmstad_Malmö
 + 4.39711498817 LASTBILAR:Halmstad_Mellanlager
 + 200.520260734 LASTBILAR:Halmstad_Skövde
 + 120.109853521 LASTBILAR:Halmstad_Väjxö
 + 186.590542614 LASTBILAR:Helsingborg_Borås
 + 69.8310467012 LASTBILAR:Helsingborg_Halmstad
 + 212.428637671 LASTBILAR:Helsingborg_Jönköping
 + 236.793449858 LASTBILAR:Helsingborg_Kalmar
 + 91.0248842752 LASTBILAR:Helsingborg_Kristianstad
 + 52.7001283969 LASTBILAR:Helsingborg_Malmö
 + 10.1101285508 LASTBILAR:Helsingborg_Mellanlager
 + 269.83903541 LASTBILAR:Helsingborg_Skövde
 + 143.848661612 LASTBILAR:Helsingborg_Väjxö
 + 72.9498920842 LASTBILAR:Jönköping_Borås
 + 146.44119272 LASTBILAR:Jönköping_Halmstad
 + 182.251290843 LASTBILAR:Jönköping_Kalmar
 + 194.877692768 LASTBILAR:Jönköping_Kristianstad
 + 251.864235661 LASTBILAR:Jönköping_Malmö
 + 11.2202592038 LASTBILAR:Jönköping_Mellanlager
 + 70.3592908554 LASTBILAR:Jönköping_Skövde
 + 139.296008448 LASTBILAR:Jönköping_Väjxö
 + 238.062628612 LASTBILAR:Kalmar_Borås
 + 214.589770104 LASTBILAR:Kalmar_Halmstad
 + 182.251290843 LASTBILAR:Kalmar_Jönköping
 + 153.600237954 LASTBILAR:Kalmar_Kristianstad
 + 239.359558591 LASTBILAR:Kalmar_Malmö
 + 17.5280277241 LASTBILAR:Kalmar_Mellanlager
 + 244.375679972 LASTBILAR:Kalmar_Skövde
 + 95.5688776167 LASTBILAR:Kalmar_Väjxö
 + 202.132093175 LASTBILAR:Kristianstad_Borås
 + 106.953221929 LASTBILAR:Kristianstad_Halmstad
 + 194.877692768 LASTBILAR:Kristianstad_Jönköping
 + 153.600237954 LASTBILAR:Kristianstad_Kalmar
 + 85.922226566 LASTBILAR:Kristianstad_Malmö
 + 9.79106596503 LASTBILAR:Kristianstad_Mellanlager
 + 263.441799101 LASTBILAR:Kristianstad_Skövde
 + 73.6167797749 LASTBILAR:Kristianstad_Väjxö
 + 234.985314523 LASTBILAR:Malmö_Borås + 118.34541695 LASTBILAR:Malmö_Halmstad
 + 251.864235661 LASTBILAR:Malmö_Jönköping
 + 239.359558591 LASTBILAR:Malmö_Kalmar
 + 85.922226566 LASTBILAR:Malmö_Kristianstad
 + 14.0092098996 LASTBILAR:Malmö_Mellanlager
 + 313.853462574 LASTBILAR:Malmö_Skövde + 156.052931731 LASTBILAR:Malmö_Väjxö
 + 104.402912365 LASTBILAR:Mellanlager_Borås
 + 43.9711498817 LASTBILAR:Mellanlager_Halmstad
 + 112.202592038 LASTBILAR:Mellanlager_Jönköping
 + 175.280277241 LASTBILAR:Mellanlager_Kalmar
 + 97.9106596503 LASTBILAR:Mellanlager_Kristianstad
 + 140.092098996 LASTBILAR:Mellanlager_Malmö
 + 174.314563758 LASTBILAR:Mellanlager_Skövde
 + 84.3855577669 LASTBILAR:Mellanlager_Väjxö
 + 91.9516130598 LASTBILAR:Skövde_Borås
 + 200.520260734 LASTBILAR:Skövde_Halmstad
 + 70.3592908554 LASTBILAR:Skövde_Jönköping
 + 244.375679972 LASTBILAR:Skövde_Kalmar
 + 263.441799101 LASTBILAR:Skövde_Kristianstad
 + 313.853462574 LASTBILAR:Skövde_Malmö
 + 17.4314563758 LASTBILAR:Skövde_Mellanlager
 + 209.633942188 LASTBILAR:Skövde_Väjxö + 170.070640406 LASTBILAR:Väjxö_Borås
 + 120.109853521 LASTBILAR:Väjxö_Halmstad
 + 139.296008448 LASTBILAR:Väjxö_Jönköping
 + 95.5688776167 LASTBILAR:Väjxö_Kalmar
 + 73.6167797749 LASTBILAR:Väjxö_Kristianstad
 + 156.052931731 LASTBILAR:Väjxö_Malmö
 + 8.43855577669 LASTBILAR:Väjxö_Mellanlager
 + 209.633942188 LASTBILAR:Väjxö_Skövde
 + 145.895327096 LASTBILAR:Älmhult_Borås
 + 80.2807489347 LASTBILAR:Älmhult_Halmstad
 + 132.522170317 LASTBILAR:Älmhult_Jönköping
 + 135.259611524 LASTBILAR:Älmhult_Kalmar
 + 62.3576420501 LASTBILAR:Älmhult_Kristianstad
 + 130.830308184 LASTBILAR:Älmhult_Malmö
 + 4.81385998488 LASTBILAR:Älmhult_Mellanlager
 + 201.323079538 LASTBILAR:Älmhult_Skövde
 + 39.9559400049 LASTBILAR:Älmhult_Väjxö
Subject To
Lastbilsbegränsning_Göteborg: LASTBILAR:Göteborg_Borås
 + LASTBILAR:Göteborg_Halmstad + LASTBILAR:Göteborg_Jönköping
 + LASTBILAR:Göteborg_Kalmar + LASTBILAR:Göteborg_Kristianstad
 + LASTBILAR:Göteborg_Malmö + LASTBILAR:Göteborg_Mellanlager
 + LASTBILAR:Göteborg_Skövde + LASTBILAR:Göteborg_Väjxö <= 100
Lastbilsbegränsning_Helsingborg: LASTBILAR:Helsingborg_Borås
 + LASTBILAR:Helsingborg_Halmstad + LASTBILAR:Helsingborg_Jönköping
 + LASTBILAR:Helsingborg_Kalmar + LASTBILAR:Helsingborg_Kristianstad
 + LASTBILAR:Helsingborg_Malmö + LASTBILAR:Helsingborg_Mellanlager
 + LASTBILAR:Helsingborg_Skövde + LASTBILAR:Helsingborg_Väjxö <= 150
Lastbilsbegränsning_Älmhult: LASTBILAR:Älmhult_Borås
 + LASTBILAR:Älmhult_Halmstad + LASTBILAR:Älmhult_Jönköping
 + LASTBILAR:Älmhult_Kalmar + LASTBILAR:Älmhult_Kristianstad
 + LASTBILAR:Älmhult_Malmö + LASTBILAR:Älmhult_Mellanlager
 + LASTBILAR:Älmhult_Skövde + LASTBILAR:Älmhult_Väjxö <= 100
Rätt_mängd_till_Borås: 0 LASTBILAR:Borås_Borås - LASTBILAR:Borås_Halmstad
 - LASTBILAR:Borås_Jönköping - LASTBILAR:Borås_Kalmar
 - LASTBILAR:Borås_Kristianstad - LASTBILAR:Borås_Malmö
 - LASTBILAR:Borås_Mellanlager - LASTBILAR:Borås_Skövde
 - LASTBILAR:Borås_Väjxö + LASTBILAR:Göteborg_Borås + LASTBILAR:Halmstad_Borås
 + LASTBILAR:Helsingborg_Borås + LASTBILAR:Jönköping_Borås
 + LASTBILAR:Kalmar_Borås + LASTBILAR:Kristianstad_Borås
 + LASTBILAR:Malmö_Borås + LASTBILAR:Mellanlager_Borås
 + LASTBILAR:Skövde_Borås + LASTBILAR:Väjxö_Borås + LASTBILAR:Älmhult_Borås
 = 65
Rätt_mängd_till_Halmstad: LASTBILAR:Borås_Halmstad
 + LASTBILAR:Göteborg_Halmstad - LASTBILAR:Halmstad_Borås
 + 0 LASTBILAR:Halmstad_Halmstad - LASTBILAR:Halmstad_Jönköping
 - LASTBILAR:Halmstad_Kalmar - LASTBILAR:Halmstad_Kristianstad
 - LASTBILAR:Halmstad_Malmö - LASTBILAR:Halmstad_Mellanlager
 - LASTBILAR:Halmstad_Skövde - LASTBILAR:Halmstad_Väjxö
 + LASTBILAR:Helsingborg_Halmstad + LASTBILAR:Jönköping_Halmstad
 + LASTBILAR:Kalmar_Halmstad + LASTBILAR:Kristianstad_Halmstad
 + LASTBILAR:Malmö_Halmstad + LASTBILAR:Mellanlager_Halmstad
 + LASTBILAR:Skövde_Halmstad + LASTBILAR:Väjxö_Halmstad
 + LASTBILAR:Älmhult_Halmstad = 70
Rätt_mängd_till_Jönköping: LASTBILAR:Borås_Jönköping
 + LASTBILAR:Göteborg_Jönköping + LASTBILAR:Halmstad_Jönköping
 + LASTBILAR:Helsingborg_Jönköping - LASTBILAR:Jönköping_Borås
 - LASTBILAR:Jönköping_Halmstad + 0 LASTBILAR:Jönköping_Jönköping
 - LASTBILAR:Jönköping_Kalmar - LASTBILAR:Jönköping_Kristianstad
 - LASTBILAR:Jönköping_Malmö - LASTBILAR:Jönköping_Mellanlager
 - LASTBILAR:Jönköping_Skövde - LASTBILAR:Jönköping_Väjxö
 + LASTBILAR:Kalmar_Jönköping + LASTBILAR:Kristianstad_Jönköping
 + LASTBILAR:Malmö_Jönköping + LASTBILAR:Mellanlager_Jönköping
 + LASTBILAR:Skövde_Jönköping + LASTBILAR:Väjxö_Jönköping
 + LASTBILAR:Älmhult_Jönköping = 30
Rätt_mängd_till_Kalmar: LASTBILAR:Borås_Kalmar + LASTBILAR:Göteborg_Kalmar
 + LASTBILAR:Halmstad_Kalmar + LASTBILAR:Helsingborg_Kalmar
 + LASTBILAR:Jönköping_Kalmar - LASTBILAR:Kalmar_Borås
 - LASTBILAR:Kalmar_Halmstad - LASTBILAR:Kalmar_Jönköping
 + 0 LASTBILAR:Kalmar_Kalmar - LASTBILAR:Kalmar_Kristianstad
 - LASTBILAR:Kalmar_Malmö - LASTBILAR:Kalmar_Mellanlager
 - LASTBILAR:Kalmar_Skövde - LASTBILAR:Kalmar_Väjxö
 + LASTBILAR:Kristianstad_Kalmar + LASTBILAR:Malmö_Kalmar
 + LASTBILAR:Mellanlager_Kalmar + LASTBILAR:Skövde_Kalmar
 + LASTBILAR:Väjxö_Kalmar + LASTBILAR:Älmhult_Kalmar = 30
Rätt_mängd_till_Kristianstad: LASTBILAR:Borås_Kristianstad
 + LASTBILAR:Göteborg_Kristianstad + LASTBILAR:Halmstad_Kristianstad
 + LASTBILAR:Helsingborg_Kristianstad + LASTBILAR:Jönköping_Kristianstad
 + LASTBILAR:Kalmar_Kristianstad - LASTBILAR:Kristianstad_Borås
 - LASTBILAR:Kristianstad_Halmstad - LASTBILAR:Kristianstad_Jönköping
 - LASTBILAR:Kristianstad_Kalmar + 0 LASTBILAR:Kristianstad_Kristianstad
 - LASTBILAR:Kristianstad_Malmö - LASTBILAR:Kristianstad_Mellanlager
 - LASTBILAR:Kristianstad_Skövde - LASTBILAR:Kristianstad_Väjxö
 + LASTBILAR:Malmö_Kristianstad + LASTBILAR:Mellanlager_Kristianstad
 + LASTBILAR:Skövde_Kristianstad + LASTBILAR:Väjxö_Kristianstad
 + LASTBILAR:Älmhult_Kristianstad = 50
Rätt_mängd_till_Malmö: LASTBILAR:Borås_Malmö + LASTBILAR:Göteborg_Malmö
 + LASTBILAR:Halmstad_Malmö + LASTBILAR:Helsingborg_Malmö
 + LASTBILAR:Jönköping_Malmö + LASTBILAR:Kalmar_Malmö
 + LASTBILAR:Kristianstad_Malmö - LASTBILAR:Malmö_Borås
 - LASTBILAR:Malmö_Halmstad - LASTBILAR:Malmö_Jönköping
 - LASTBILAR:Malmö_Kalmar - LASTBILAR:Malmö_Kristianstad
 + 0 LASTBILAR:Malmö_Malmö - LASTBILAR:Malmö_Mellanlager
 - LASTBILAR:Malmö_Skövde - LASTBILAR:Malmö_Väjxö
 + LASTBILAR:Mellanlager_Malmö + LASTBILAR:Skövde_Malmö
 + LASTBILAR:Väjxö_Malmö + LASTBILAR:Älmhult_Malmö = 30
Rätt_mängd_till_Mellanlager: LASTBILAR:Borås_Mellanlager
 + LASTBILAR:Göteborg_Mellanlager + LASTBILAR:Halmstad_Mellanlager
 + LASTBILAR:Helsingborg_Mellanlager + LASTBILAR:Jönköping_Mellanlager
 + LASTBILAR:Kalmar_Mellanlager + LASTBILAR:Kristianstad_Mellanlager
 + LASTBILAR:Malmö_Mellanlager - LASTBILAR:Mellanlager_Borås
 - LASTBILAR:Mellanlager_Halmstad - LASTBILAR:Mellanlager_Jönköping
 - LASTBILAR:Mellanlager_Kalmar - LASTBILAR:Mellanlager_Kristianstad
 - LASTBILAR:Mellanlager_Malmö + 0 LASTBILAR:Mellanlager_Mellanlager
 - LASTBILAR:Mellanlager_Skövde - LASTBILAR:Mellanlager_Väjxö
 + LASTBILAR:Skövde_Mellanlager + LASTBILAR:Väjxö_Mellanlager
 + LASTBILAR:Älmhult_Mellanlager = 0
Rätt_mängd_till_Skövde: LASTBILAR:Borås_Skövde + LASTBILAR:Göteborg_Skövde
 + LASTBILAR:Halmstad_Skövde + LASTBILAR:Helsingborg_Skövde
 + LASTBILAR:Jönköping_Skövde + LASTBILAR:Kalmar_Skövde
 + LASTBILAR:Kristianstad_Skövde + LASTBILAR:Malmö_Skövde
 + LASTBILAR:Mellanlager_Skövde - LASTBILAR:Skövde_Borås
 - LASTBILAR:Skövde_Halmstad - LASTBILAR:Skövde_Jönköping
 - LASTBILAR:Skövde_Kalmar - LASTBILAR:Skövde_Kristianstad
 - LASTBILAR:Skövde_Malmö - LASTBILAR:Skövde_Mellanlager
 + 0 LASTBILAR:Skövde_Skövde - LASTBILAR:Skövde_Väjxö + LASTBILAR:Väjxö_Skövde
 + LASTBILAR:Älmhult_Skövde = 40
Rätt_mängd_till_Väjxö: LASTBILAR:Borås_Väjxö + LASTBILAR:Göteborg_Väjxö
 + LASTBILAR:Halmstad_Väjxö + LASTBILAR:Helsingborg_Väjxö
 + LASTBILAR:Jönköping_Väjxö + LASTBILAR:Kalmar_Väjxö
 + LASTBILAR:Kristianstad_Väjxö + LASTBILAR:Malmö_Väjxö
 + LASTBILAR:Mellanlager_Väjxö + LASTBILAR:Skövde_Väjxö
 - LASTBILAR:Väjxö_Borås - LASTBILAR:Väjxö_Halmstad
 - LASTBILAR:Väjxö_Jönköping - LASTBILAR:Väjxö_Kalmar
 - LASTBILAR:Väjxö_Kristianstad - LASTBILAR:Väjxö_Malmö
 - LASTBILAR:Väjxö_Mellanlager - LASTBILAR:Väjxö_Skövde
 + 0 LASTBILAR:Väjxö_Väjxö + LASTBILAR:Älmhult_Väjxö = 35
Bounds
 0 <= LASTBILAR:Borås_Borås
 0 <= LASTBILAR:Borås_Halmstad
 0 <= LASTBILAR:Borås_Jönköping
 0 <= LASTBILAR:Borås_Kalmar
 0 <= LASTBILAR:Borås_Kristianstad
 0 <= LASTBILAR:Borås_Malmö
 0 <= LASTBILAR:Borås_Mellanlager
 0 <= LASTBILAR:Borås_Skövde
 0 <= LASTBILAR:Borås_Väjxö
 0 <= LASTBILAR:Göteborg_Borås
 0 <= LASTBILAR:Göteborg_Halmstad
 0 <= LASTBILAR:Göteborg_Jönköping
 0 <= LASTBILAR:Göteborg_Kalmar
 0 <= LASTBILAR:Göteborg_Kristianstad
 0 <= LASTBILAR:Göteborg_Malmö
 0 <= LASTBILAR:Göteborg_Mellanlager
 0 <= LASTBILAR:Göteborg_Skövde
 0 <= LASTBILAR:Göteborg_Väjxö
 0 <= LASTBILAR:Halmstad_Borås
 0 <= LASTBILAR:Halmstad_Halmstad
 0 <= LASTBILAR:Halmstad_Jönköping
 0 <= LASTBILAR:Halmstad_Kalmar
 0 <= LASTBILAR:Halmstad_Kristianstad
 0 <= LASTBILAR:Halmstad_Malmö
 0 <= LASTBILAR:Halmstad_Mellanlager
 0 <= LASTBILAR:Halmstad_Skövde
 0 <= LASTBILAR:Halmstad_Väjxö
 0 <= LASTBILAR:Helsingborg_Borås
 0 <= LASTBILAR:Helsingborg_Halmstad
 0 <= LASTBILAR:Helsingborg_Jönköping
 0 <= LASTBILAR:Helsingborg_Kalmar
 0 <= LASTBILAR:Helsingborg_Kristianstad
 0 <= LASTBILAR:Helsingborg_Malmö
 0 <= LASTBILAR:Helsingborg_Mellanlager
 0 <= LASTBILAR:Helsingborg_Skövde
 0 <= LASTBILAR:Helsingborg_Väjxö
 0 <= LASTBILAR:Jönköping_Borås
 0 <= LASTBILAR:Jönköping_Halmstad
 0 <= LASTBILAR:Jönköping_Jönköping
 0 <= LASTBILAR:Jönköping_Kalmar
 0 <= LASTBILAR:Jönköping_Kristianstad
 0 <= LASTBILAR:Jönköping_Malmö
 0 <= LASTBILAR:Jönköping_Mellanlager
 0 <= LASTBILAR:Jönköping_Skövde
 0 <= LASTBILAR:Jönköping_Väjxö
 0 <= LASTBILAR:Kalmar_Borås
 0 <= LASTBILAR:Kalmar_Halmstad
 0 <= LASTBILAR:Kalmar_Jönköping
 0 <= LASTBILAR:Kalmar_Kalmar
 0 <= LASTBILAR:Kalmar_Kristianstad
 0 <= LASTBILAR:Kalmar_Malmö
 0 <= LASTBILAR:Kalmar_Mellanlager
 0 <= LASTBILAR:Kalmar_Skövde
 0 <= LASTBILAR:Kalmar_Väjxö
 0 <= LASTBILAR:Kristianstad_Borås
 0 <= LASTBILAR:Kristianstad_Halmstad
 0 <= LASTBILAR:Kristianstad_Jönköping
 0 <= LASTBILAR:Kristianstad_Kalmar
 0 <= LASTBILAR:Kristianstad_Kristianstad
 0 <= LASTBILAR:Kristianstad_Malmö
 0 <= LASTBILAR:Kristianstad_Mellanlager
 0 <= LASTBILAR:Kristianstad_Skövde
 0 <= LASTBILAR:Kristianstad_Väjxö
 0 <= LASTBILAR:Malmö_Borås
 0 <= LASTBILAR:Malmö_Halmstad
 0 <= LASTBILAR:Malmö_Jönköping
 0 <= LASTBILAR:Malmö_Kalmar
 0 <= LASTBILAR:Malmö_Kristianstad
 0 <= LASTBILAR:Malmö_Malmö
 0 <= LASTBILAR:Malmö_Mellanlager
 0 <= LASTBILAR:Malmö_Skövde
 0 <= LASTBILAR:Malmö_Väjxö
 0 <= LASTBILAR:Mellanlager_Borås
 0 <= LASTBILAR:Mellanlager_Halmstad
 0 <= LASTBILAR:Mellanlager_Jönköping
 0 <= LASTBILAR:Mellanlager_Kalmar
 0 <= LASTBILAR:Mellanlager_Kristianstad
 0 <= LASTBILAR:Mellanlager_Malmö
 0 <= LASTBILAR:Mellanlager_Mellanlager
 0 <= LASTBILAR:Mellanlager_Skövde
 0 <= LASTBILAR:Mellanlager_Väjxö
 0 <= LASTBILAR:Skövde_Borås
 0 <= LASTBILAR:Skövde_Halmstad
 0 <= LASTBILAR:Skövde_Jönköping
 0 <= LASTBILAR:Skövde_Kalmar
 0 <= LASTBILAR:Skövde_Kristianstad
 0 <= LASTBILAR:Skövde_Malmö
 0 <= LASTBILAR:Skövde_Mellanlager
 0 <= LASTBILAR:Skövde_Skövde
 0 <= LASTBILAR:Skövde_Väjxö
 0 <= LASTBILAR:Väjxö_Borås
 0 <= LASTBILAR:Väjxö_Halmstad
 0 <= LASTBILAR:Väjxö_Jönköping
 0 <= LASTBILAR:Väjxö_Kalmar
 0 <= LASTBILAR:Väjxö_Kristianstad
 0 <= LASTBILAR:Väjxö_Malmö
 0 <= LASTBILAR:Väjxö_Mellanlager
 0 <= LASTBILAR:Väjxö_Skövde
 0 <= LASTBILAR:Väjxö_Väjxö
 0 <= LASTBILAR:Älmhult_Borås
 0 <= LASTBILAR:Älmhult_Halmstad
 0 <= LASTBILAR:Älmhult_Jönköping
 0 <= LASTBILAR:Älmhult_Kalmar
 0 <= LASTBILAR:Älmhult_Kristianstad
 0 <= LASTBILAR:Älmhult_Malmö
 0 <= LASTBILAR:Älmhult_Mellanlager
 0 <= LASTBILAR:Älmhult_Skövde
 0 <= LASTBILAR:Älmhult_Väjxö
Generals
LASTBILAR:Borås_Borås
LASTBILAR:Borås_Halmstad
LASTBILAR:Borås_Jönköping
LASTBILAR:Borås_Kalmar
LASTBILAR:Borås_Kristianstad
LASTBILAR:Borås_Malmö
LASTBILAR:Borås_Mellanlager
LASTBILAR:Borås_Skövde
LASTBILAR:Borås_Väjxö
LASTBILAR:Göteborg_Borås
LASTBILAR:Göteborg_Halmstad
LASTBILAR:Göteborg_Jönköping
LASTBILAR:Göteborg_Kalmar
LASTBILAR:Göteborg_Kristianstad
LASTBILAR:Göteborg_Malmö
LASTBILAR:Göteborg_Mellanlager
LASTBILAR:Göteborg_Skövde
LASTBILAR:Göteborg_Väjxö
LASTBILAR:Halmstad_Borås
LASTBILAR:Halmstad_Halmstad
LASTBILAR:Halmstad_Jönköping
LASTBILAR:Halmstad_Kalmar
LASTBILAR:Halmstad_Kristianstad
LASTBILAR:Halmstad_Malmö
LASTBILAR:Halmstad_Mellanlager
LASTBILAR:Halmstad_Skövde
LASTBILAR:Halmstad_Väjxö
LASTBILAR:Helsingborg_Borås
LASTBILAR:Helsingborg_Halmstad
LASTBILAR:Helsingborg_Jönköping
LASTBILAR:Helsingborg_Kalmar
LASTBILAR:Helsingborg_Kristianstad
LASTBILAR:Helsingborg_Malmö
LASTBILAR:Helsingborg_Mellanlager
LASTBILAR:Helsingborg_Skövde
LASTBILAR:Helsingborg_Väjxö
LASTBILAR:Jönköping_Borås
LASTBILAR:Jönköping_Halmstad
LASTBILAR:Jönköping_Jönköping
LASTBILAR:Jönköping_Kalmar
LASTBILAR:Jönköping_Kristianstad
LASTBILAR:Jönköping_Malmö
LASTBILAR:Jönköping_Mellanlager
LASTBILAR:Jönköping_Skövde
LASTBILAR:Jönköping_Väjxö
LASTBILAR:Kalmar_Borås
LASTBILAR:Kalmar_Halmstad
LASTBILAR:Kalmar_Jönköping
LASTBILAR:Kalmar_Kalmar
LASTBILAR:Kalmar_Kristianstad
LASTBILAR:Kalmar_Malmö
LASTBILAR:Kalmar_Mellanlager
LASTBILAR:Kalmar_Skövde
LASTBILAR:Kalmar_Väjxö
LASTBILAR:Kristianstad_Borås
LASTBILAR:Kristianstad_Halmstad
LASTBILAR:Kristianstad_Jönköping
LASTBILAR:Kristianstad_Kalmar
LASTBILAR:Kristianstad_Kristianstad
LASTBILAR:Kristianstad_Malmö
LASTBILAR:Kristianstad_Mellanlager
LASTBILAR:Kristianstad_Skövde
LASTBILAR:Kristianstad_Väjxö
LASTBILAR:Malmö_Borås
LASTBILAR:Malmö_Halmstad
LASTBILAR:Malmö_Jönköping
LASTBILAR:Malmö_Kalmar
LASTBILAR:Malmö_Kristianstad
LASTBILAR:Malmö_Malmö
LASTBILAR:Malmö_Mellanlager
LASTBILAR:Malmö_Skövde
LASTBILAR:Malmö_Väjxö
LASTBILAR:Mellanlager_Borås
LASTBILAR:Mellanlager_Halmstad
LASTBILAR:Mellanlager_Jönköping
LASTBILAR:Mellanlager_Kalmar
LASTBILAR:Mellanlager_Kristianstad
LASTBILAR:Mellanlager_Malmö
LASTBILAR:Mellanlager_Mellanlager
LASTBILAR:Mellanlager_Skövde
LASTBILAR:Mellanlager_Väjxö
LASTBILAR:Skövde_Borås
LASTBILAR:Skövde_Halmstad
LASTBILAR:Skövde_Jönköping
LASTBILAR:Skövde_Kalmar
LASTBILAR:Skövde_Kristianstad
LASTBILAR:Skövde_Malmö
LASTBILAR:Skövde_Mellanlager
LASTBILAR:Skövde_Skövde
LASTBILAR:Skövde_Väjxö
LASTBILAR:Väjxö_Borås
LASTBILAR:Väjxö_Halmstad
LASTBILAR:Väjxö_Jönköping
LASTBILAR:Väjxö_Kalmar
LASTBILAR:Väjxö_Kristianstad
LASTBILAR:Väjxö_Malmö
LASTBILAR:Väjxö_Mellanlager
LASTBILAR:Väjxö_Skövde
LASTBILAR:Väjxö_Väjxö
LASTBILAR:Älmhult_Borås
LASTBILAR:Älmhult_Halmstad
LASTBILAR:Älmhult_Jönköping
LASTBILAR:Älmhult_Kalmar
LASTBILAR:Älmhult_Kristianstad
LASTBILAR:Älmhult_Malmö
LASTBILAR:Älmhult_Mellanlager
LASTBILAR:Älmhult_Skövde
LASTBILAR:Älmhult_Väjxö
End
